NAME: PointSet_Angle_50_10
TYPE: TSP
COMMENT: Points chosen discrete uniformly at random out of ${0, \ldots, 500}^2$.
DIMENSION: 50
EDGE_WEIGHT_TYPE: EUC_2D
NODE_COORD_SECTION
1 43 315
2 194 408
3 326 151
4 304 383
5 388 310
6 470 373
7 308 45
8 434 483
9 487 365
10 494 134
11 291 274
12 257 356
13 337 488
14 241 421
15 355 484
16 282 398
17 45 476
18 305 117
19 373 356
20 500 261
21 412 469
22 133 219
23 260 313
24 201 247
25 177 442
26 381 214
27 215 384
28 316 51
29 117 56
30 473 472
31 40 254
32 370 332
33 476 421
34 449 349
35 22 448
36 356 434
37 163 235
38 400 169
39 47 100
40 416 471
41 41 42
42 431 256
43 172 246
44 54 289
45 303 26
46 7 89
47 26 123
48 421 1
49 43 115
50 96 313
EOF
